

===================================================== Patient 1 ===
Answer: clingo version 5.4.1
Reading from /tmp/tmpwqx93rzm.lp Solving...

Answer: 1
offered("pancreatic_protocol_CT_scan") offer("pancreatic_protocol_CT_scan") ask("first-degree_relatives_with_pancreatic_cancer") offered("EUS_with_EUS-guided_tissue_sampling") offer("EUS_with_EUS-guided_tissue_sampling")

Answer: 2
offered("pancreatic_protocol_CT_scan") offer("pancreatic_protocol_CT_scan") ask("first-degree_relatives_with_pancreatic_cancer") offered("FDG-PET/CT") offer("FDG-PET/CT")

Answer: 3
offered("pancreatic_protocol_CT_scan") offer("pancreatic_protocol_CT_scan") ask("first-degree_relatives_with_pancreatic_cancer") offered("FDG-PET/CT") offer("FDG-PET/CT") offered("EUS_with_EUS-guided_tissue_sampling") offer("EUS_with_EUS-guided_tissue_sampling")

=== Patient 2 ===
Answer: clingo version 5.4.1
Reading from /tmp/tmpga0qgtw5.lp Solving...

Answer: 1
offered("pancreatic_protocol_CT_scan") offer("pancreatic_protocol_CT_scan") consider("ultrasound_scan") consider("urgent_direct_access_CT_scan") ask("first-degree_relatives_with_pancreatic_cancer") carry_out("assessment_for_additional_symptoms") offered("urgent_investigation") offer("urgent_investigation") offered("EUS_with_EUS-guided_tissue_sampling") offer("EUS_with_EUS-guided_tissue_sampling")

Answer: 2
offered("pancreatic_protocol_CT_scan") offer("pancreatic_protocol_CT_scan") consider("ultrasound_scan") consider("urgent_direct_access_CT_scan") ask("first-degree_relatives_with_pancreatic_cancer") carry_out("assessment_for_additional_symptoms") offered("urgent_investigation") offer("urgent_investigation") offered("FDG-PET/CT") offer("FDG-PET/CT")

Answer: 3
offered("pancreatic_protocol_CT_scan") offer("pancreatic_protocol_CT_scan") consider("ultrasound_scan") consider("urgent_direct_access_CT_scan") ask("first-degree_relatives_with_pancreatic_cancer") carry_out("assessment_for_additional_symptoms") offered("urgent_investigation") offer("urgent_investigation") offered("FDG-PET/CT") offer("FDG-PET/CT") offered("EUS_with_EUS-guided_tissue_sampling") offer("EUS_with_EUS-guided_tissue_sampling")

Answer: 4
offered("pancreatic_protocol_CT_scan") offer("pancreatic_protocol_CT_scan") consider("ultrasound_scan") consider("urgent_direct_access_CT_scan") ask("first-degree_relatives_with_pancreatic_cancer") carry_out("assessment_for_additional_symptoms") offered("suspected_cancer_pathway_referral") offer("suspected_cancer_pathway_referral") offered("EUS_with_EUS-guided_tissue_sampling") offer("EUS_with_EUS-guided_tissue_sampling")

Answer: 5
offered("pancreatic_protocol_CT_scan") offer("pancreatic_protocol_CT_scan") consider("ultrasound_scan") consider("urgent_direct_access_CT_scan") ask("first-degree_relatives_with_pancreatic_cancer") carry_out("assessment_for_additional_symptoms") offered("suspected_cancer_pathway_referral") offer("suspected_cancer_pathway_referral") offered("FDG-PET/CT") offer("FDG-PET/CT")

Answer: 6
offered("pancreatic_protocol_CT_scan") offer("pancreatic_protocol_CT_scan") consider("ultrasound_scan") consider("urgent_direct_access_CT_scan") ask("first-degree_relatives_with_pancreatic_cancer") carry_out("assessment_for_additional_symptoms") offered("suspected_cancer_pathway_referral") offer("suspected_cancer_pathway_referral") offered("FDG-PET/CT") offer("FDG-PET/CT") offered("EUS_with_EUS-guided_tissue_sampling") offer("EUS_with_EUS-guided_tissue_sampling")

=== Patient 3 ===
Answer: clingo version 5.4.1
Reading from /tmp/tmpdboewq7n.lp Solving...

Answer: 1
offered("pancreatic_protocol_CT_scan") offer("pancreatic_protocol_CT_scan") located_in("cystic_lesions","head_of_the_pancreas") consider("ultrasound_scan") consider("urgent_direct_access_CT_scan") ask("first-degree_relatives_with_pancreatic_cancer") carry_out("assessment_for_additional_symptoms") offered("urgent_investigation") offer("urgent_investigation") offered("EUS_with_EUS-guided_tissue_sampling") offer("EUS_with_EUS-guided_tissue_sampling")

Answer: 2
offered("pancreatic_protocol_CT_scan") offer("pancreatic_protocol_CT_scan") located_in("cystic_lesions","head_of_the_pancreas") consider("ultrasound_scan") consider("urgent_direct_access_CT_scan") ask("first-degree_relatives_with_pancreatic_cancer") carry_out("assessment_for_additional_symptoms") offered("urgent_investigation") offer("urgent_investigation") offered("FDG-PET/CT") offer("FDG-PET/CT")

Answer: 3
offered("pancreatic_protocol_CT_scan") offer("pancreatic_protocol_CT_scan") located_in("cystic_lesions","head_of_the_pancreas") consider("ultrasound_scan") consider("urgent_direct_access_CT_scan") ask("first-degree_relatives_with_pancreatic_cancer") carry_out("assessment_for_additional_symptoms") offered("urgent_investigation") offer("urgent_investigation") offered("FDG-PET/CT") offer("FDG-PET/CT") offered("EUS_with_EUS-guided_tissue_sampling") offer("EUS_with_EUS-guided_tissue_sampling")

Answer: 4
offered("pancreatic_protocol_CT_scan") offer("pancreatic_protocol_CT_scan") located_in("cystic_lesions","head_of_the_pancreas") consider("ultrasound_scan") consider("urgent_direct_access_CT_scan") ask("first-degree_relatives_with_pancreatic_cancer") carry_out("assessment_for_additional_symptoms") offered("suspected_cancer_pathway_referral") offer("suspected_cancer_pathway_referral") offered("EUS_with_EUS-guided_tissue_sampling") offer("EUS_with_EUS-guided_tissue_sampling")

Answer: 5
offered("pancreatic_protocol_CT_scan") offer("pancreatic_protocol_CT_scan") located_in("cystic_lesions","head_of_the_pancreas") consider("ultrasound_scan") consider("urgent_direct_access_CT_scan") ask("first-degree_relatives_with_pancreatic_cancer") carry_out("assessment_for_additional_symptoms") offered("suspected_cancer_pathway_referral") offer("suspected_cancer_pathway_referral") offered("FDG-PET/CT") offer("FDG-PET/CT")

Answer: 6
offered("pancreatic_protocol_CT_scan") offer("pancreatic_protocol_CT_scan") located_in("cystic_lesions","head_of_the_pancreas") consider("ultrasound_scan") consider("urgent_direct_access_CT_scan") ask("first-degree_relatives_with_pancreatic_cancer") carry_out("assessment_for_additional_symptoms") offered("suspected_cancer_pathway_referral") offer("suspected_cancer_pathway_referral") offered("FDG-PET/CT") offer("FDG-PET/CT") offered("EUS_with_EUS-guided_tissue_sampling") offer("EUS_with_EUS-guided_tissue_sampling")

=== Patient 4 ===
Answer: clingo version 5.4.1
Reading from /tmp/tmpozziryzd.lp Solving...

Answer: 1
refer("suspected_cancer_pathway",cancer("pancreas")) ask("first-degree_relatives_with_pancreatic_cancer")

=== Patient 5 ===
Answer: clingo version 5.4.1
Reading from /tmp/tmpsko3omac.lp Solving...

Answer: 1
offered("pancreatic_protocol_CT_scan") offer("pancreatic_protocol_CT_scan") ask("first-degree_relatives_with_pancreatic_cancer") offered("EUS_with_EUS-guided_tissue_sampling") offer("EUS_with_EUS-guided_tissue_sampling")

Answer: 2
offered("pancreatic_protocol_CT_scan") offer("pancreatic_protocol_CT_scan") ask("first-degree_relatives_with_pancreatic_cancer") offered("FDG-PET/CT") offer("FDG-PET/CT")

Answer: 3
offered("pancreatic_protocol_CT_scan") offer("pancreatic_protocol_CT_scan") ask("first-degree_relatives_with_pancreatic_cancer") offered("FDG-PET/CT") offer("FDG-PET/CT") offered("EUS_with_EUS-guided_tissue_sampling") offer("EUS_with_EUS-guided_tissue_sampling")

=== Patient 6 ===
Answer: clingo version 5.4.1
Reading from /tmp/tmpno9qkind.lp Solving...

Answer: 1
offered("pancreatic_protocol_CT_scan") offer("pancreatic_protocol_CT_scan") ask("first-degree_relatives_with_pancreatic_cancer") offered("EUS_with_EUS-guided_tissue_sampling") offer("EUS_with_EUS-guided_tissue_sampling")

Answer: 2
offered("pancreatic_protocol_CT_scan") offer("pancreatic_protocol_CT_scan") ask("first-degree_relatives_with_pancreatic_cancer") offered("FDG-PET/CT") offer("FDG-PET/CT")

Answer: 3
offered("pancreatic_protocol_CT_scan") offer("pancreatic_protocol_CT_scan") ask("first-degree_relatives_with_pancreatic_cancer") offered("FDG-PET/CT") offer("FDG-PET/CT") offered("EUS_with_EUS-guided_tissue_sampling") offer("EUS_with_EUS-guided_tissue_sampling")

=== Patient 7 ===
Answer: clingo version 5.4.1
Reading from /tmp/tmphhwufion.lp Solving...

Answer: 1
refer("suspected_cancer_pathway",cancer("pancreas")) ask("first-degree_relatives_with_pancreatic_cancer") carry_out("assessment_for_additional_symptoms") offered("urgent_investigation") offer("urgent_investigation")

Answer: 2
refer("suspected_cancer_pathway",cancer("pancreas")) ask("first-degree_relatives_with_pancreatic_cancer") carry_out("assessment_for_additional_symptoms") offered("suspected_cancer_pathway_referral") offer("suspected_cancer_pathway_referral")

=== Patient 8 ===
Answer: clingo version 5.4.1
Reading from /tmp/tmp1aj_6h4w.lp Solving...

Answer: 1
offered("pancreatic_protocol_CT_scan") offer("pancreatic_protocol_CT_scan") ask("first-degree_relatives_with_pancreatic_cancer") offered("EUS_with_EUS-guided_tissue_sampling") offer("EUS_with_EUS-guided_tissue_sampling")

Answer: 2
offered("pancreatic_protocol_CT_scan") offer("pancreatic_protocol_CT_scan") ask("first-degree_relatives_with_pancreatic_cancer") offered("FDG-PET/CT") offer("FDG-PET/CT")

Answer: 3
offered("pancreatic_protocol_CT_scan") offer("pancreatic_protocol_CT_scan") ask("first-degree_relatives_with_pancreatic_cancer") offered("FDG-PET/CT") offer("FDG-PET/CT") offered("EUS_with_EUS-guided_tissue_sampling") offer("EUS_with_EUS-guided_tissue_sampling")

=== Patient 9 ===
Answer: clingo version 5.4.1
Reading from /tmp/tmp6z9dj1t_.lp Solving...

Answer: 1
offered("pancreatic_protocol_CT_scan") offer("pancreatic_protocol_CT_scan") ask("first-degree_relatives_with_pancreatic_cancer") offered("EUS_with_EUS-guided_tissue_sampling") offer("EUS_with_EUS-guided_tissue_sampling")

Answer: 2
offered("pancreatic_protocol_CT_scan") offer("pancreatic_protocol_CT_scan") ask("first-degree_relatives_with_pancreatic_cancer") offered("FDG-PET/CT") offer("FDG-PET/CT")

Answer: 3
offered("pancreatic_protocol_CT_scan") offer("pancreatic_protocol_CT_scan") ask("first-degree_relatives_with_pancreatic_cancer") offered("FDG-PET/CT") offer("FDG-PET/CT") offered("EUS_with_EUS-guided_tissue_sampling") offer("EUS_with_EUS-guided_tissue_sampling")

=== Patient 10 ===
Answer: clingo version 5.4.1
Reading from /tmp/tmpgb5n4lml.lp Solving...

Answer: 1
offered("pancreatic_protocol_CT_scan") offer("pancreatic_protocol_CT_scan") ask("first-degree_relatives_with_pancreatic_cancer") offered("EUS_with_EUS-guided_tissue_sampling") offer("EUS_with_EUS-guided_tissue_sampling")

Answer: 2
offered("pancreatic_protocol_CT_scan") offer("pancreatic_protocol_CT_scan") ask("first-degree_relatives_with_pancreatic_cancer") offered("FDG-PET/CT") offer("FDG-PET/CT")

Answer: 3
offered("pancreatic_protocol_CT_scan") offer("pancreatic_protocol_CT_scan") ask("first-degree_relatives_with_pancreatic_cancer") offered("FDG-PET/CT") offer("FDG-PET/CT") offered("EUS_with_EUS-guided_tissue_sampling") offer("EUS_with_EUS-guided_tissue_sampling")

=== Patient 11 ===
Answer: clingo version 5.4.1
Reading from /tmp/tmp5wlghiy_.lp Solving...

Answer: 1
offered("pancreatic_protocol_CT_scan") offer("pancreatic_protocol_CT_scan") ask("first-degree_relatives_with_pancreatic_cancer") offered("EUS_with_EUS-guided_tissue_sampling") offer("EUS_with_EUS-guided_tissue_sampling")

Answer: 2
offered("pancreatic_protocol_CT_scan") offer("pancreatic_protocol_CT_scan") ask("first-degree_relatives_with_pancreatic_cancer") offered("FDG-PET/CT") offer("FDG-PET/CT")

Answer: 3
offered("pancreatic_protocol_CT_scan") offer("pancreatic_protocol_CT_scan") ask("first-degree_relatives_with_pancreatic_cancer") offered("FDG-PET/CT") offer("FDG-PET/CT") offered("EUS_with_EUS-guided_tissue_sampling") offer("EUS_with_EUS-guided_tissue_sampling")

=== Patient 12 ===
Answer: clingo version 5.4.1
Reading from /tmp/tmpdnxtg_4l.lp Solving...

Answer: 1
offered("pancreatic_protocol_CT_scan") offer("pancreatic_protocol_CT_scan") ask("first-degree_relatives_with_pancreatic_cancer") offered("EUS_with_EUS-guided_tissue_sampling") offer("EUS_with_EUS-guided_tissue_sampling")

Answer: 2
offered("pancreatic_protocol_CT_scan") offer("pancreatic_protocol_CT_scan") ask("first-degree_relatives_with_pancreatic_cancer") offered("FDG-PET/CT") offer("FDG-PET/CT")

Answer: 3
offered("pancreatic_protocol_CT_scan") offer("pancreatic_protocol_CT_scan") ask("first-degree_relatives_with_pancreatic_cancer") offered("FDG-PET/CT") offer("FDG-PET/CT") offered("EUS_with_EUS-guided_tissue_sampling") offer("EUS_with_EUS-guided_tissue_sampling")

=== Patient 13 ===
Answer: clingo version 5.4.1
Reading from /tmp/tmpvr7oildw.lp Solving...

Answer: 1
offered("pancreatic_protocol_CT_scan") offer("pancreatic_protocol_CT_scan") ask("first-degree_relatives_with_pancreatic_cancer") carry_out("assessment_for_additional_symptoms") offered("urgent_investigation") offer("urgent_investigation") offered("EUS_with_EUS-guided_tissue_sampling") offer("EUS_with_EUS-guided_tissue_sampling")

Answer: 2
offered("pancreatic_protocol_CT_scan") offer("pancreatic_protocol_CT_scan") ask("first-degree_relatives_with_pancreatic_cancer") carry_out("assessment_for_additional_symptoms") offered("urgent_investigation") offer("urgent_investigation") offered("FDG-PET/CT") offer("FDG-PET/CT")

Answer: 3
offered("pancreatic_protocol_CT_scan") offer("pancreatic_protocol_CT_scan") ask("first-degree_relatives_with_pancreatic_cancer") carry_out("assessment_for_additional_symptoms") offered("urgent_investigation") offer("urgent_investigation") offered("FDG-PET/CT") offer("FDG-PET/CT") offered("EUS_with_EUS-guided_tissue_sampling") offer("EUS_with_EUS-guided_tissue_sampling")

Answer: 4
offered("pancreatic_protocol_CT_scan") offer("pancreatic_protocol_CT_scan") ask("first-degree_relatives_with_pancreatic_cancer") carry_out("assessment_for_additional_symptoms") offered("suspected_cancer_pathway_referral") offer("suspected_cancer_pathway_referral") offered("EUS_with_EUS-guided_tissue_sampling") offer("EUS_with_EUS-guided_tissue_sampling")

Answer: 5
offered("pancreatic_protocol_CT_scan") offer("pancreatic_protocol_CT_scan") ask("first-degree_relatives_with_pancreatic_cancer") carry_out("assessment_for_additional_symptoms") offered("suspected_cancer_pathway_referral") offer("suspected_cancer_pathway_referral") offered("FDG-PET/CT") offer("FDG-PET/CT")

Answer: 6
offered("pancreatic_protocol_CT_scan") offer("pancreatic_protocol_CT_scan") ask("first-degree_relatives_with_pancreatic_cancer") carry_out("assessment_for_additional_symptoms") offered("suspected_cancer_pathway_referral") offer("suspected_cancer_pathway_referral") offered("FDG-PET/CT") offer("FDG-PET/CT") offered("EUS_with_EUS-guided_tissue_sampling") offer("EUS_with_EUS-guided_tissue_sampling")

=== Patient 14 ===
Answer: clingo version 5.4.1
Reading from /tmp/tmpp29wd23s.lp Solving...

Answer: 1
offered("pancreatic_protocol_CT_scan") offer("pancreatic_protocol_CT_scan") consider("ultrasound_scan") consider("urgent_direct_access_CT_scan") ask("first-degree_relatives_with_pancreatic_cancer") carry_out("assessment_for_additional_symptoms") offered("urgent_investigation") offer("urgent_investigation") offered("EUS_with_EUS-guided_tissue_sampling") offer("EUS_with_EUS-guided_tissue_sampling")

Answer: 2
offered("pancreatic_protocol_CT_scan") offer("pancreatic_protocol_CT_scan") consider("ultrasound_scan") consider("urgent_direct_access_CT_scan") ask("first-degree_relatives_with_pancreatic_cancer") carry_out("assessment_for_additional_symptoms") offered("urgent_investigation") offer("urgent_investigation") offered("FDG-PET/CT") offer("FDG-PET/CT")

Answer: 3
offered("pancreatic_protocol_CT_scan") offer("pancreatic_protocol_CT_scan") consider("ultrasound_scan") consider("urgent_direct_access_CT_scan") ask("first-degree_relatives_with_pancreatic_cancer") carry_out("assessment_for_additional_symptoms") offered("urgent_investigation") offer("urgent_investigation") offered("FDG-PET/CT") offer("FDG-PET/CT") offered("EUS_with_EUS-guided_tissue_sampling") offer("EUS_with_EUS-guided_tissue_sampling")

Answer: 4
offered("pancreatic_protocol_CT_scan") offer("pancreatic_protocol_CT_scan") consider("ultrasound_scan") consider("urgent_direct_access_CT_scan") ask("first-degree_relatives_with_pancreatic_cancer") carry_out("assessment_for_additional_symptoms") offered("suspected_cancer_pathway_referral") offer("suspected_cancer_pathway_referral") offered("EUS_with_EUS-guided_tissue_sampling") offer("EUS_with_EUS-guided_tissue_sampling")

Answer: 5
offered("pancreatic_protocol_CT_scan") offer("pancreatic_protocol_CT_scan") consider("ultrasound_scan") consider("urgent_direct_access_CT_scan") ask("first-degree_relatives_with_pancreatic_cancer") carry_out("assessment_for_additional_symptoms") offered("suspected_cancer_pathway_referral") offer("suspected_cancer_pathway_referral") offered("FDG-PET/CT") offer("FDG-PET/CT")

Answer: 6
offered("pancreatic_protocol_CT_scan") offer("pancreatic_protocol_CT_scan") consider("ultrasound_scan") consider("urgent_direct_access_CT_scan") ask("first-degree_relatives_with_pancreatic_cancer") carry_out("assessment_for_additional_symptoms") offered("suspected_cancer_pathway_referral") offer("suspected_cancer_pathway_referral") offered("FDG-PET/CT") offer("FDG-PET/CT") offered("EUS_with_EUS-guided_tissue_sampling") offer("EUS_with_EUS-guided_tissue_sampling")

=== Patient 15 ===
Answer: clingo version 5.4.1
Reading from /tmp/tmpwy6hnu9d.lp Solving...

Answer: 1
offered("pancreatic_protocol_CT_scan") offer("pancreatic_protocol_CT_scan") consider("ultrasound_scan") consider("urgent_direct_access_CT_scan") ask("first-degree_relatives_with_pancreatic_cancer") carry_out("assessment_for_additional_symptoms") offered("urgent_investigation") offer("urgent_investigation") offered("EUS_with_EUS-guided_tissue_sampling") offer("EUS_with_EUS-guided_tissue_sampling")

Answer: 2
offered("pancreatic_protocol_CT_scan") offer("pancreatic_protocol_CT_scan") consider("ultrasound_scan") consider("urgent_direct_access_CT_scan") ask("first-degree_relatives_with_pancreatic_cancer") carry_out("assessment_for_additional_symptoms") offered("urgent_investigation") offer("urgent_investigation") offered("FDG-PET/CT") offer("FDG-PET/CT")

Answer: 3
offered("pancreatic_protocol_CT_scan") offer("pancreatic_protocol_CT_scan") consider("ultrasound_scan") consider("urgent_direct_access_CT_scan") ask("first-degree_relatives_with_pancreatic_cancer") carry_out("assessment_for_additional_symptoms") offered("urgent_investigation") offer("urgent_investigation") offered("FDG-PET/CT") offer("FDG-PET/CT") offered("EUS_with_EUS-guided_tissue_sampling") offer("EUS_with_EUS-guided_tissue_sampling")

Answer: 4
offered("pancreatic_protocol_CT_scan") offer("pancreatic_protocol_CT_scan") consider("ultrasound_scan") consider("urgent_direct_access_CT_scan") ask("first-degree_relatives_with_pancreatic_cancer") carry_out("assessment_for_additional_symptoms") offered("suspected_cancer_pathway_referral") offer("suspected_cancer_pathway_referral") offered("EUS_with_EUS-guided_tissue_sampling") offer("EUS_with_EUS-guided_tissue_sampling")

Answer: 5
offered("pancreatic_protocol_CT_scan") offer("pancreatic_protocol_CT_scan") consider("ultrasound_scan") consider("urgent_direct_access_CT_scan") ask("first-degree_relatives_with_pancreatic_cancer") carry_out("assessment_for_additional_symptoms") offered("suspected_cancer_pathway_referral") offer("suspected_cancer_pathway_referral") offered("FDG-PET/CT") offer("FDG-PET/CT")

Answer: 6
offered("pancreatic_protocol_CT_scan") offer("pancreatic_protocol_CT_scan") consider("ultrasound_scan") consider("urgent_direct_access_CT_scan") ask("first-degree_relatives_with_pancreatic_cancer") carry_out("assessment_for_additional_symptoms") offered("suspected_cancer_pathway_referral") offer("suspected_cancer_pathway_referral") offered("FDG-PET/CT") offer("FDG-PET/CT") offered("EUS_with_EUS-guided_tissue_sampling") offer("EUS_with_EUS-guided_tissue_sampling")

=== Patient 16 ===
Answer: clingo version 5.4.1
Reading from /tmp/tmpcyp4lskb.lp Solving...

Answer: 1
offered("pancreatic_protocol_CT_scan") offered("biliary_brushing") offer("biliary_brushing") offer("pancreatic_protocol_CT_scan") used_for("ERCP","biliary_obstruction") ask("first-degree_relatives_with_pancreatic_cancer") offered("EUS_with_EUS-guided_tissue_sampling") offer("EUS_with_EUS-guided_tissue_sampling")

Answer: 2
offered("pancreatic_protocol_CT_scan") offered("biliary_brushing") offer("biliary_brushing") offer("pancreatic_protocol_CT_scan") used_for("ERCP","biliary_obstruction") ask("first-degree_relatives_with_pancreatic_cancer") offered("FDG-PET/CT") offer("FDG-PET/CT")

Answer: 3
offered("pancreatic_protocol_CT_scan") offered("biliary_brushing") offer("biliary_brushing") offer("pancreatic_protocol_CT_scan") used_for("ERCP","biliary_obstruction") ask("first-degree_relatives_with_pancreatic_cancer") offered("FDG-PET/CT") offer("FDG-PET/CT") offered("EUS_with_EUS-guided_tissue_sampling") offer("EUS_with_EUS-guided_tissue_sampling")

=== Patient 17 ===
Answer: clingo version 5.4.1
Reading from /tmp/tmpv6376kyo.lp Solving...

Answer: 1
offered("pancreatic_protocol_CT_scan") offer("pancreatic_protocol_CT_scan") refer("resection",cancer("pancreas")) ask("first-degree_relatives_with_pancreatic_cancer") offered("EUS_with_EUS-guided_tissue_sampling") offer("EUS_with_EUS-guided_tissue_sampling")

Answer: 2
offered("pancreatic_protocol_CT_scan") offer("pancreatic_protocol_CT_scan") refer("resection",cancer("pancreas")) ask("first-degree_relatives_with_pancreatic_cancer") offered("FDG-PET/CT") offer("FDG-PET/CT")

Answer: 3
offered("pancreatic_protocol_CT_scan") offer("pancreatic_protocol_CT_scan") refer("resection",cancer("pancreas")) ask("first-degree_relatives_with_pancreatic_cancer") offered("FDG-PET/CT") offer("FDG-PET/CT") offered("EUS_with_EUS-guided_tissue_sampling") offer("EUS_with_EUS-guided_tissue_sampling")

=== Patient 18 ===
Answer: clingo version 5.4.1
Reading from /tmp/tmptqogo3pw.lp Solving...

Answer: 1
offered("pancreatic_protocol_CT_scan") offer("pancreatic_protocol_CT_scan") ask("first-degree_relatives_with_pancreatic_cancer") carry_out("assessment_for_additional_symptoms") offered("urgent_investigation") offer("urgent_investigation") offered("EUS_with_EUS-guided_tissue_sampling") offer("EUS_with_EUS-guided_tissue_sampling")

Answer: 2
offered("pancreatic_protocol_CT_scan") offer("pancreatic_protocol_CT_scan") ask("first-degree_relatives_with_pancreatic_cancer") carry_out("assessment_for_additional_symptoms") offered("urgent_investigation") offer("urgent_investigation") offered("FDG-PET/CT") offer("FDG-PET/CT")

Answer: 3
offered("pancreatic_protocol_CT_scan") offer("pancreatic_protocol_CT_scan") ask("first-degree_relatives_with_pancreatic_cancer") carry_out("assessment_for_additional_symptoms") offered("urgent_investigation") offer("urgent_investigation") offered("FDG-PET/CT") offer("FDG-PET/CT") offered("EUS_with_EUS-guided_tissue_sampling") offer("EUS_with_EUS-guided_tissue_sampling")

Answer: 4
offered("pancreatic_protocol_CT_scan") offer("pancreatic_protocol_CT_scan") ask("first-degree_relatives_with_pancreatic_cancer") carry_out("assessment_for_additional_symptoms") offered("suspected_cancer_pathway_referral") offer("suspected_cancer_pathway_referral") offered("EUS_with_EUS-guided_tissue_sampling") offer("EUS_with_EUS-guided_tissue_sampling")

Answer: 5
offered("pancreatic_protocol_CT_scan") offer("pancreatic_protocol_CT_scan") ask("first-degree_relatives_with_pancreatic_cancer") carry_out("assessment_for_additional_symptoms") offered("suspected_cancer_pathway_referral") offer("suspected_cancer_pathway_referral") offered("FDG-PET/CT") offer("FDG-PET/CT")

Answer: 6
offered("pancreatic_protocol_CT_scan") offer("pancreatic_protocol_CT_scan") ask("first-degree_relatives_with_pancreatic_cancer") carry_out("assessment_for_additional_symptoms") offered("suspected_cancer_pathway_referral") offer("suspected_cancer_pathway_referral") offered("FDG-PET/CT") offer("FDG-PET/CT") offered("EUS_with_EUS-guided_tissue_sampling") offer("EUS_with_EUS-guided_tissue_sampling")

=== Patient 19 ===
Answer: clingo version 5.4.1
Reading from /tmp/tmpytaw58og.lp Solving...

Answer: 1
offered("pancreatic_protocol_CT_scan") offer("pancreatic_protocol_CT_scan") consider("MRI") ask("first-degree_relatives_with_pancreatic_cancer") offered("EUS_with_EUS-guided_tissue_sampling") offer("EUS_with_EUS-guided_tissue_sampling")

Answer: 2
offered("pancreatic_protocol_CT_scan") offer("pancreatic_protocol_CT_scan") consider("MRI") ask("first-degree_relatives_with_pancreatic_cancer") offered("FDG-PET/CT") offer("FDG-PET/CT")

Answer: 3
offered("pancreatic_protocol_CT_scan") offer("pancreatic_protocol_CT_scan") consider("MRI") ask("first-degree_relatives_with_pancreatic_cancer") offered("FDG-PET/CT") offer("FDG-PET/CT") offered("EUS_with_EUS-guided_tissue_sampling") offer("EUS_with_EUS-guided_tissue_sampling")

=== Patient 20 ===
Answer: clingo version 5.4.1
Reading from /tmp/tmp77gu2e80.lp Solving...

Answer: 1
offered("pancreatic_protocol_CT_scan") offer("pancreatic_protocol_CT_scan") located_in("cystic_lesions","head_of_the_pancreas") ask("first-degree_relatives_with_pancreatic_cancer") offered("EUS_with_EUS-guided_tissue_sampling") offer("EUS_with_EUS-guided_tissue_sampling")

Answer: 2
offered("pancreatic_protocol_CT_scan") offer("pancreatic_protocol_CT_scan") located_in("cystic_lesions","head_of_the_pancreas") ask("first-degree_relatives_with_pancreatic_cancer") offered("FDG-PET/CT") offer("FDG-PET/CT")

Answer: 3
offered("pancreatic_protocol_CT_scan") offer("pancreatic_protocol_CT_scan") located_in("cystic_lesions","head_of_the_pancreas") ask("first-degree_relatives_with_pancreatic_cancer") offered("FDG-PET/CT") offer("FDG-PET/CT") offered("EUS_with_EUS-guided_tissue_sampling") offer("EUS_with_EUS-guided_tissue_sampling")